NAME : Game 1037
COMMENT : Dots
TYPE : TSP
DIMENSION : 21
EDGE_WEIGHT_TYPE : EUC_2D
NODE_COORD_SECTION
1 10 15
2 13 63
3 17 37
4 17 49
5 22 77
6 25 25
7 32 56
8 37 75
9 41 88
10 44 41
11 46 14
12 51 89
13 66 10
14 66 24
15 69 88
16 73 37
17 73 78
18 74 57
19 84 26
20 84 78
21 88 43
EOF